Copyright (C) 2013-2015, Filipe Brandao
Build (method = -2)
  #dp: 1120
  Step-3' Graph: 43 vertices and 493 arcs (0.00s)
  Step-4' Graph: 42 vertices and 491 arcs (0.00s)
  #V4/#V3 = 0.98
  #A4/#A3 = 1.00
Ready! (0.00s)
Optimize a model with 72 rows, 492 columns and 1402 nonzeros
Found heuristic solution: objective 61
Presolve removed 12 rows and 14 columns
Presolve time: 0.00s
Presolved: 60 rows, 478 columns, 1364 nonzeros
Variable types: 0 continuous, 478 integer (7 binary)
Optimize a model with 60 rows, 478 columns and 1364 nonzeros
Presolved: 60 rows, 478 columns, 1364 nonzeros

Root barrier log...

Ordering time: 0.00s

Barrier statistics:
 AA' NZ     : 8.380e+02
 Factor NZ  : 1.340e+03
 Factor Ops : 3.904e+04 (less than 1 second per iteration)
 Threads    : 1

                  Objective                Residual
Iter       Primal          Dual         Primal    Dual     Compl     Time
   0   7.31307445e+02 -2.49946637e+03  2.59e+03 8.72e-02  1.85e+01     0s
   1   2.40468303e+02 -1.12565216e+03  4.03e+02 5.55e-16  3.49e+00     0s
   2   1.01568979e+02 -3.59597692e+02  1.61e+01 7.77e-16  5.30e-01     0s
   3   7.11211629e+01 -5.68905250e+01  1.82e+00 5.55e-16  1.34e-01     0s
   4   4.78133031e+01  3.14749490e+00  3.21e-01 6.38e-16  4.61e-02     0s
   5   4.24553713e+01  2.42099243e+01  1.48e-01 4.48e-16  1.88e-02     0s
   6   4.18583615e+01  2.86402047e+01  1.01e-01 6.09e-16  1.36e-02     0s
   7   4.05493859e+01  3.31885866e+01  4.87e-02 6.71e-16  7.57e-03     0s
   8   3.99708123e+01  3.63288325e+01  3.22e-02 5.58e-16  3.75e-03     0s
   9   3.96999374e+01  3.75579811e+01  2.20e-02 7.80e-16  2.20e-03     0s
  10   3.93026188e+01  3.82180385e+01  6.38e-03 5.81e-16  1.11e-03     0s
  11   3.91231891e+01  3.87339934e+01  2.34e-03 5.68e-16  4.00e-04     0s
  12   3.90789280e+01  3.89574973e+01  1.07e-03 4.43e-16  1.25e-04     0s
  13   3.90421140e+01  3.90366429e+01  5.52e-05 7.06e-16  5.62e-06     0s
  14   3.90400001e+01  3.90399996e+01  1.33e-09 5.55e-16  5.28e-10     0s
  15   3.90400000e+01  3.90400000e+01  1.85e-13 6.80e-16  5.42e-16     0s

Barrier solved model in 15 iterations and 0.00 seconds
Optimal objective 3.90400000e+01


Root relaxation: objective 3.904000e+01, 273 iterations, 0.00 seconds

    Nodes    |    Current Node    |     Objective Bounds      |     Work
 Expl Unexpl |  Obj  Depth IntInf | Incumbent    BestBd   Gap | It/Node Time

     0     0   39.04000    0   22   61.00000   39.04000  36.0%     -    0s
H    0     0                      43.0000000   39.04000  9.21%     -    0s
H    0     0                      41.0000000   39.04000  4.78%     -    0s
H    0     0                      40.0000000   39.04000  2.40%     -    0s

Explored 0 nodes (435 simplex iterations) in 0.02 seconds
Thread count was 1 (of 4 available processors)

Optimal solution found (tolerance 0.00e+00)
Best objective 4.000000000000e+01, best bound 4.000000000000e+01, gap 0.0%
Preprocessing time: 0.00 seconds
Gurobi run time: 0.02 seconds
Total run time: 0.02 seconds
Objective: 40
Solution:
3 x [i=1, i=20]
3 x [i=2, i=19]
4 x [i=3, i=18]
2 x [i=3, i=25, i=28]
1 x [i=3, i=26, i=27]
1 x [i=4, i=27]
2 x [i=5, i=17]
1 x [i=5, i=24, i=27]
3 x [i=6, i=16]
1 x [i=6, i=21, i=29]
2 x [i=6, i=22, i=28]
2 x [i=7, i=23, i=26]
1 x [i=8, i=14]
2 x [i=8, i=19, i=29]
1 x [i=8, i=24, i=24]
1 x [i=8, i=30]
1 x [i=9, i=13]
2 x [i=10, i=12]
1 x [i=11, i=11]
3 x [i=12, i=15, i=30]
1 x [i=13, i=15, i=29]
1 x [i=15, i=24, i=25, i=27]
1 x [i=21, i=30, i=30, i=30]
